c File: flat150_3_0.col
c
c SOURCE: Joseph Culberson (joe@cs.ualberta.ca)
c DESCRIPTION: Quasi-random coloring problem
c              generated with flatness = 0
c                             probability = 0.048
c                             known coloring = 3
c                             random seed = 1046
c              Creation Date:  Wed Feb 24 10:37:30 1999
c Maximum degree = 8 Minimum degree = 0
c COLOR VERIFICATION: Using the permuted order
c under simple greedy yields the specified
c coloring number
c Color = 3 specified partitions = 3
c p edge 150 360
c cnf created by edge2cnf
p cnf 450 1680
-1 -2 0
-1 -3 0
-2 -3 0
1 2 3 0
-4 -5 0
-4 -6 0
-5 -6 0
4 5 6 0
-7 -8 0
-7 -9 0
-8 -9 0
7 8 9 0
-10 -11 0
-10 -12 0
-11 -12 0
10 11 12 0
-13 -14 0
-13 -15 0
-14 -15 0
13 14 15 0
-16 -17 0
-16 -18 0
-17 -18 0
16 17 18 0
-19 -20 0
-19 -21 0
-20 -21 0
19 20 21 0
-22 -23 0
-22 -24 0
-23 -24 0
22 23 24 0
-25 -26 0
-25 -27 0
-26 -27 0
25 26 27 0
-28 -29 0
-28 -30 0
-29 -30 0
28 29 30 0
-31 -32 0
-31 -33 0
-32 -33 0
31 32 33 0
-34 -35 0
-34 -36 0
-35 -36 0
34 35 36 0
-37 -38 0
-37 -39 0
-38 -39 0
37 38 39 0
-40 -41 0
-40 -42 0
-41 -42 0
40 41 42 0
-43 -44 0
-43 -45 0
-44 -45 0
43 44 45 0
-46 -47 0
-46 -48 0
-47 -48 0
46 47 48 0
-49 -50 0
-49 -51 0
-50 -51 0
49 50 51 0
-52 -53 0
-52 -54 0
-53 -54 0
52 53 54 0
-55 -56 0
-55 -57 0
-56 -57 0
55 56 57 0
-58 -59 0
-58 -60 0
-59 -60 0
58 59 60 0
-61 -62 0
-61 -63 0
-62 -63 0
61 62 63 0
-64 -65 0
-64 -66 0
-65 -66 0
64 65 66 0
-67 -68 0
-67 -69 0
-68 -69 0
67 68 69 0
-70 -71 0
-70 -72 0
-71 -72 0
70 71 72 0
-73 -74 0
-73 -75 0
-74 -75 0
73 74 75 0
-76 -77 0
-76 -78 0
-77 -78 0
76 77 78 0
-79 -80 0
-79 -81 0
-80 -81 0
79 80 81 0
-82 -83 0
-82 -84 0
-83 -84 0
82 83 84 0
-85 -86 0
-85 -87 0
-86 -87 0
85 86 87 0
-88 -89 0
-88 -90 0
-89 -90 0
88 89 90 0
-91 -92 0
-91 -93 0
-92 -93 0
91 92 93 0
-94 -95 0
-94 -96 0
-95 -96 0
94 95 96 0
-97 -98 0
-97 -99 0
-98 -99 0
97 98 99 0
-100 -101 0
-100 -102 0
-101 -102 0
100 101 102 0
-103 -104 0
-103 -105 0
-104 -105 0
103 104 105 0
-106 -107 0
-106 -108 0
-107 -108 0
106 107 108 0
-109 -110 0
-109 -111 0
-110 -111 0
109 110 111 0
-112 -113 0
-112 -114 0
-113 -114 0
112 113 114 0
-115 -116 0
-115 -117 0
-116 -117 0
115 116 117 0
-118 -119 0
-118 -120 0
-119 -120 0
118 119 120 0
-121 -122 0
-121 -123 0
-122 -123 0
121 122 123 0
-124 -125 0
-124 -126 0
-125 -126 0
124 125 126 0
-127 -128 0
-127 -129 0
-128 -129 0
127 128 129 0
-130 -131 0
-130 -132 0
-131 -132 0
130 131 132 0
-133 -134 0
-133 -135 0
-134 -135 0
133 134 135 0
-136 -137 0
-136 -138 0
-137 -138 0
136 137 138 0
-139 -140 0
-139 -141 0
-140 -141 0
139 140 141 0
-142 -143 0
-142 -144 0
-143 -144 0
142 143 144 0
-145 -146 0
-145 -147 0
-146 -147 0
145 146 147 0
-148 -149 0
-148 -150 0
-149 -150 0
148 149 150 0
-151 -152 0
-151 -153 0
-152 -153 0
151 152 153 0
-154 -155 0
-154 -156 0
-155 -156 0
154 155 156 0
-157 -158 0
-157 -159 0
-158 -159 0
157 158 159 0
-160 -161 0
-160 -162 0
-161 -162 0
160 161 162 0
-163 -164 0
-163 -165 0
-164 -165 0
163 164 165 0
-166 -167 0
-166 -168 0
-167 -168 0
166 167 168 0
-169 -170 0
-169 -171 0
-170 -171 0
169 170 171 0
-172 -173 0
-172 -174 0
-173 -174 0
172 173 174 0
-175 -176 0
-175 -177 0
-176 -177 0
175 176 177 0
-178 -179 0
-178 -180 0
-179 -180 0
178 179 180 0
-181 -182 0
-181 -183 0
-182 -183 0
181 182 183 0
-184 -185 0
-184 -186 0
-185 -186 0
184 185 186 0
-187 -188 0
-187 -189 0
-188 -189 0
187 188 189 0
-190 -191 0
-190 -192 0
-191 -192 0
190 191 192 0
-193 -194 0
-193 -195 0
-194 -195 0
193 194 195 0
-196 -197 0
-196 -198 0
-197 -198 0
196 197 198 0
-199 -200 0
-199 -201 0
-200 -201 0
199 200 201 0
-202 -203 0
-202 -204 0
-203 -204 0
202 203 204 0
-205 -206 0
-205 -207 0
-206 -207 0
205 206 207 0
-208 -209 0
-208 -210 0
-209 -210 0
208 209 210 0
-211 -212 0
-211 -213 0
-212 -213 0
211 212 213 0
-214 -215 0
-214 -216 0
-215 -216 0
214 215 216 0
-217 -218 0
-217 -219 0
-218 -219 0
217 218 219 0
-220 -221 0
-220 -222 0
-221 -222 0
220 221 222 0
-223 -224 0
-223 -225 0
-224 -225 0
223 224 225 0
-226 -227 0
-226 -228 0
-227 -228 0
226 227 228 0
-229 -230 0
-229 -231 0
-230 -231 0
229 230 231 0
-232 -233 0
-232 -234 0
-233 -234 0
232 233 234 0
-235 -236 0
-235 -237 0
-236 -237 0
235 236 237 0
-238 -239 0
-238 -240 0
-239 -240 0
238 239 240 0
-241 -242 0
-241 -243 0
-242 -243 0
241 242 243 0
-244 -245 0
-244 -246 0
-245 -246 0
244 245 246 0
-247 -248 0
-247 -249 0
-248 -249 0
247 248 249 0
-250 -251 0
-250 -252 0
-251 -252 0
250 251 252 0
-253 -254 0
-253 -255 0
-254 -255 0
253 254 255 0
-256 -257 0
-256 -258 0
-257 -258 0
256 257 258 0
-259 -260 0
-259 -261 0
-260 -261 0
259 260 261 0
-262 -263 0
-262 -264 0
-263 -264 0
262 263 264 0
-265 -266 0
-265 -267 0
-266 -267 0
265 266 267 0
-268 -269 0
-268 -270 0
-269 -270 0
268 269 270 0
-271 -272 0
-271 -273 0
-272 -273 0
271 272 273 0
-274 -275 0
-274 -276 0
-275 -276 0
274 275 276 0
-277 -278 0
-277 -279 0
-278 -279 0
277 278 279 0
-280 -281 0
-280 -282 0
-281 -282 0
280 281 282 0
-283 -284 0
-283 -285 0
-284 -285 0
283 284 285 0
-286 -287 0
-286 -288 0
-287 -288 0
286 287 288 0
-289 -290 0
-289 -291 0
-290 -291 0
289 290 291 0
-292 -293 0
-292 -294 0
-293 -294 0
292 293 294 0
-295 -296 0
-295 -297 0
-296 -297 0
295 296 297 0
-298 -299 0
-298 -300 0
-299 -300 0
298 299 300 0
-301 -302 0
-301 -303 0
-302 -303 0
301 302 303 0
-304 -305 0
-304 -306 0
-305 -306 0
304 305 306 0
-307 -308 0
-307 -309 0
-308 -309 0
307 308 309 0
-310 -311 0
-310 -312 0
-311 -312 0
310 311 312 0
-313 -314 0
-313 -315 0
-314 -315 0
313 314 315 0
-316 -317 0
-316 -318 0
-317 -318 0
316 317 318 0
-319 -320 0
-319 -321 0
-320 -321 0
319 320 321 0
-322 -323 0
-322 -324 0
-323 -324 0
322 323 324 0
-325 -326 0
-325 -327 0
-326 -327 0
325 326 327 0
-328 -329 0
-328 -330 0
-329 -330 0
328 329 330 0
-331 -332 0
-331 -333 0
-332 -333 0
331 332 333 0
-334 -335 0
-334 -336 0
-335 -336 0
334 335 336 0
-337 -338 0
-337 -339 0
-338 -339 0
337 338 339 0
-340 -341 0
-340 -342 0
-341 -342 0
340 341 342 0
-343 -344 0
-343 -345 0
-344 -345 0
343 344 345 0
-346 -347 0
-346 -348 0
-347 -348 0
346 347 348 0
-349 -350 0
-349 -351 0
-350 -351 0
349 350 351 0
-352 -353 0
-352 -354 0
-353 -354 0
352 353 354 0
-355 -356 0
-355 -357 0
-356 -357 0
355 356 357 0
-358 -359 0
-358 -360 0
-359 -360 0
358 359 360 0
-361 -362 0
-361 -363 0
-362 -363 0
361 362 363 0
-364 -365 0
-364 -366 0
-365 -366 0
364 365 366 0
-367 -368 0
-367 -369 0
-368 -369 0
367 368 369 0
-370 -371 0
-370 -372 0
-371 -372 0
370 371 372 0
-373 -374 0
-373 -375 0
-374 -375 0
373 374 375 0
-376 -377 0
-376 -378 0
-377 -378 0
376 377 378 0
-379 -380 0
-379 -381 0
-380 -381 0
379 380 381 0
-382 -383 0
-382 -384 0
-383 -384 0
382 383 384 0
-385 -386 0
-385 -387 0
-386 -387 0
385 386 387 0
-388 -389 0
-388 -390 0
-389 -390 0
388 389 390 0
-391 -392 0
-391 -393 0
-392 -393 0
391 392 393 0
-394 -395 0
-394 -396 0
-395 -396 0
394 395 396 0
-397 -398 0
-397 -399 0
-398 -399 0
397 398 399 0
-400 -401 0
-400 -402 0
-401 -402 0
400 401 402 0
-403 -404 0
-403 -405 0
-404 -405 0
403 404 405 0
-406 -407 0
-406 -408 0
-407 -408 0
406 407 408 0
-409 -410 0
-409 -411 0
-410 -411 0
409 410 411 0
-412 -413 0
-412 -414 0
-413 -414 0
412 413 414 0
-415 -416 0
-415 -417 0
-416 -417 0
415 416 417 0
-418 -419 0
-418 -420 0
-419 -420 0
418 419 420 0
-421 -422 0
-421 -423 0
-422 -423 0
421 422 423 0
-424 -425 0
-424 -426 0
-425 -426 0
424 425 426 0
-427 -428 0
-427 -429 0
-428 -429 0
427 428 429 0
-430 -431 0
-430 -432 0
-431 -432 0
430 431 432 0
-433 -434 0
-433 -435 0
-434 -435 0
433 434 435 0
-436 -437 0
-436 -438 0
-437 -438 0
436 437 438 0
-439 -440 0
-439 -441 0
-440 -441 0
439 440 441 0
-442 -443 0
-442 -444 0
-443 -444 0
442 443 444 0
-445 -446 0
-445 -447 0
-446 -447 0
445 446 447 0
-448 -449 0
-448 -450 0
-449 -450 0
448 449 450 0
-31 -1 0
-32 -2 0
-33 -3 0
-352 -1 0
-353 -2 0
-354 -3 0
-364 -1 0
-365 -2 0
-366 -3 0
-442 -1 0
-443 -2 0
-444 -3 0
-178 -4 0
-179 -5 0
-180 -6 0
-241 -4 0
-242 -5 0
-243 -6 0
-280 -4 0
-281 -5 0
-282 -6 0
-355 -4 0
-356 -5 0
-357 -6 0
-427 -4 0
-428 -5 0
-429 -6 0
-430 -4 0
-431 -5 0
-432 -6 0
-109 -7 0
-110 -8 0
-111 -9 0
-250 -7 0
-251 -8 0
-252 -9 0
-256 -7 0
-257 -8 0
-258 -9 0
-304 -7 0
-305 -8 0
-306 -9 0
-166 -10 0
-167 -11 0
-168 -12 0
-337 -10 0
-338 -11 0
-339 -12 0
-31 -13 0
-32 -14 0
-33 -15 0
-154 -13 0
-155 -14 0
-156 -15 0
-286 -13 0
-287 -14 0
-288 -15 0
-292 -13 0
-293 -14 0
-294 -15 0
-304 -13 0
-305 -14 0
-306 -15 0
-346 -13 0
-347 -14 0
-348 -15 0
-349 -13 0
-350 -14 0
-351 -15 0
-355 -13 0
-356 -14 0
-357 -15 0
-253 -16 0
-254 -17 0
-255 -18 0
-310 -16 0
-311 -17 0
-312 -18 0
-385 -16 0
-386 -17 0
-387 -18 0
-76 -19 0
-77 -20 0
-78 -21 0
-163 -19 0
-164 -20 0
-165 -21 0
-208 -19 0
-209 -20 0
-210 -21 0
-271 -19 0
-272 -20 0
-273 -21 0
-367 -19 0
-368 -20 0
-369 -21 0
-394 -19 0
-395 -20 0
-396 -21 0
-97 -22 0
-98 -23 0
-99 -24 0
-355 -22 0
-356 -23 0
-357 -24 0
-202 -25 0
-203 -26 0
-204 -27 0
-250 -25 0
-251 -26 0
-252 -27 0
-304 -25 0
-305 -26 0
-306 -27 0
-322 -25 0
-323 -26 0
-324 -27 0
-103 -28 0
-104 -29 0
-105 -30 0
-115 -28 0
-116 -29 0
-117 -30 0
-163 -28 0
-164 -29 0
-165 -30 0
-226 -28 0
-227 -29 0
-228 -30 0
-247 -28 0
-248 -29 0
-249 -30 0
-406 -28 0
-407 -29 0
-408 -30 0
-418 -28 0
-419 -29 0
-420 -30 0
-67 -31 0
-68 -32 0
-69 -33 0
-253 -31 0
-254 -32 0
-255 -33 0
-292 -31 0
-293 -32 0
-294 -33 0
-346 -31 0
-347 -32 0
-348 -33 0
-403 -31 0
-404 -32 0
-405 -33 0
-58 -34 0
-59 -35 0
-60 -36 0
-82 -34 0
-83 -35 0
-84 -36 0
-94 -34 0
-95 -35 0
-96 -36 0
-235 -34 0
-236 -35 0
-237 -36 0
-358 -34 0
-359 -35 0
-360 -36 0
-364 -34 0
-365 -35 0
-366 -36 0
-379 -34 0
-380 -35 0
-381 -36 0
-97 -37 0
-98 -38 0
-99 -39 0
-112 -37 0
-113 -38 0
-114 -39 0
-220 -37 0
-221 -38 0
-222 -39 0
-400 -37 0
-401 -38 0
-402 -39 0
-82 -40 0
-83 -41 0
-84 -42 0
-130 -40 0
-131 -41 0
-132 -42 0
-163 -40 0
-164 -41 0
-165 -42 0
-193 -40 0
-194 -41 0
-195 -42 0
-226 -40 0
-227 -41 0
-228 -42 0
-325 -40 0
-326 -41 0
-327 -42 0
-61 -43 0
-62 -44 0
-63 -45 0
-184 -43 0
-185 -44 0
-186 -45 0
-127 -46 0
-128 -47 0
-129 -48 0
-280 -46 0
-281 -47 0
-282 -48 0
-331 -46 0
-332 -47 0
-333 -48 0
-400 -46 0
-401 -47 0
-402 -48 0
-409 -46 0
-410 -47 0
-411 -48 0
-448 -46 0
-449 -47 0
-450 -48 0
-214 -49 0
-215 -50 0
-216 -51 0
-67 -52 0
-68 -53 0
-69 -54 0
-232 -52 0
-233 -53 0
-234 -54 0
-244 -52 0
-245 -53 0
-246 -54 0
-262 -52 0
-263 -53 0
-264 -54 0
-358 -52 0
-359 -53 0
-360 -54 0
-367 -52 0
-368 -53 0
-369 -54 0
-403 -52 0
-404 -53 0
-405 -54 0
-409 -52 0
-410 -53 0
-411 -54 0
-67 -55 0
-68 -56 0
-69 -57 0
-130 -55 0
-131 -56 0
-132 -57 0
-151 -55 0
-152 -56 0
-153 -57 0
-247 -55 0
-248 -56 0
-249 -57 0
-277 -55 0
-278 -56 0
-279 -57 0
-379 -55 0
-380 -56 0
-381 -57 0
-421 -55 0
-422 -56 0
-423 -57 0
-190 -58 0
-191 -59 0
-192 -60 0
-343 -58 0
-344 -59 0
-345 -60 0
-319 -61 0
-320 -62 0
-321 -63 0
-181 -64 0
-182 -65 0
-183 -66 0
-211 -64 0
-212 -65 0
-213 -66 0
-310 -64 0
-311 -65 0
-312 -66 0
-331 -64 0
-332 -65 0
-333 -66 0
-136 -67 0
-137 -68 0
-138 -69 0
-373 -67 0
-374 -68 0
-375 -69 0
-376 -67 0
-377 -68 0
-378 -69 0
-193 -70 0
-194 -71 0
-195 -72 0
-418 -70 0
-419 -71 0
-420 -72 0
-91 -73 0
-92 -74 0
-93 -75 0
-106 -73 0
-107 -74 0
-108 -75 0
-118 -73 0
-119 -74 0
-120 -75 0
-349 -73 0
-350 -74 0
-351 -75 0
-121 -76 0
-122 -77 0
-123 -78 0
-163 -76 0
-164 -77 0
-165 -78 0
-193 -76 0
-194 -77 0
-195 -78 0
-274 -76 0
-275 -77 0
-276 -78 0
-316 -76 0
-317 -77 0
-318 -78 0
-334 -76 0
-335 -77 0
-336 -78 0
-379 -76 0
-380 -77 0
-381 -78 0
-118 -82 0
-119 -83 0
-120 -84 0
-130 -82 0
-131 -83 0
-132 -84 0
-190 -82 0
-191 -83 0
-192 -84 0
-385 -82 0
-386 -83 0
-387 -84 0
-448 -82 0
-449 -83 0
-450 -84 0
-145 -85 0
-146 -86 0
-147 -87 0
-166 -85 0
-167 -86 0
-168 -87 0
-319 -85 0
-320 -86 0
-321 -87 0
-400 -85 0
-401 -86 0
-402 -87 0
-106 -88 0
-107 -89 0
-108 -90 0
-187 -88 0
-188 -89 0
-189 -90 0
-292 -88 0
-293 -89 0
-294 -90 0
-388 -88 0
-389 -89 0
-390 -90 0
-106 -91 0
-107 -92 0
-108 -93 0
-193 -91 0
-194 -92 0
-195 -93 0
-280 -91 0
-281 -92 0
-282 -93 0
-256 -94 0
-257 -95 0
-258 -96 0
-331 -94 0
-332 -95 0
-333 -96 0
-439 -94 0
-440 -95 0
-441 -96 0
-115 -97 0
-116 -98 0
-117 -99 0
-127 -97 0
-128 -98 0
-129 -99 0
-286 -97 0
-287 -98 0
-288 -99 0
-316 -97 0
-317 -98 0
-318 -99 0
-337 -97 0
-338 -98 0
-339 -99 0
-376 -97 0
-377 -98 0
-378 -99 0
-244 -100 0
-245 -101 0
-246 -102 0
-259 -100 0
-260 -101 0
-261 -102 0
-283 -100 0
-284 -101 0
-285 -102 0
-370 -100 0
-371 -101 0
-372 -102 0
-433 -100 0
-434 -101 0
-435 -102 0
-211 -103 0
-212 -104 0
-213 -105 0
-235 -103 0
-236 -104 0
-237 -105 0
-367 -103 0
-368 -104 0
-369 -105 0
-112 -106 0
-113 -107 0
-114 -108 0
-169 -106 0
-170 -107 0
-171 -108 0
-178 -106 0
-179 -107 0
-180 -108 0
-334 -106 0
-335 -107 0
-336 -108 0
-376 -106 0
-377 -107 0
-378 -108 0
-274 -109 0
-275 -110 0
-276 -111 0
-307 -109 0
-308 -110 0
-309 -111 0
-325 -109 0
-326 -110 0
-327 -111 0
-232 -112 0
-233 -113 0
-234 -114 0
-247 -112 0
-248 -113 0
-249 -114 0
-253 -112 0
-254 -113 0
-255 -114 0
-259 -112 0
-260 -113 0
-261 -114 0
-394 -112 0
-395 -113 0
-396 -114 0
-121 -115 0
-122 -116 0
-123 -117 0
-247 -115 0
-248 -116 0
-249 -117 0
-268 -115 0
-269 -116 0
-270 -117 0
-388 -115 0
-389 -116 0
-390 -117 0
-178 -118 0
-179 -119 0
-180 -120 0
-217 -118 0
-218 -119 0
-219 -120 0
-256 -121 0
-257 -122 0
-258 -123 0
-364 -121 0
-365 -122 0
-366 -123 0
-391 -121 0
-392 -122 0
-393 -123 0
-424 -121 0
-425 -122 0
-426 -123 0
-445 -121 0
-446 -122 0
-447 -123 0
-169 -124 0
-170 -125 0
-171 -126 0
-226 -124 0
-227 -125 0
-228 -126 0
-385 -124 0
-386 -125 0
-387 -126 0
-412 -124 0
-413 -125 0
-414 -126 0
-283 -127 0
-284 -128 0
-285 -129 0
-340 -127 0
-341 -128 0
-342 -129 0
-340 -130 0
-341 -131 0
-342 -132 0
-436 -130 0
-437 -131 0
-438 -132 0
-205 -133 0
-206 -134 0
-207 -135 0
-430 -133 0
-431 -134 0
-432 -135 0
-190 -136 0
-191 -137 0
-192 -138 0
-352 -136 0
-353 -137 0
-354 -138 0
-169 -139 0
-170 -140 0
-171 -141 0
-277 -139 0
-278 -140 0
-279 -141 0
-316 -139 0
-317 -140 0
-318 -141 0
-349 -139 0
-350 -140 0
-351 -141 0
-367 -139 0
-368 -140 0
-369 -141 0
-406 -139 0
-407 -140 0
-408 -141 0
-409 -139 0
-410 -140 0
-411 -141 0
-199 -142 0
-200 -143 0
-201 -144 0
-220 -142 0
-221 -143 0
-222 -144 0
-247 -142 0
-248 -143 0
-249 -144 0
-442 -142 0
-443 -143 0
-444 -144 0
-175 -145 0
-176 -146 0
-177 -147 0
-199 -145 0
-200 -146 0
-201 -147 0
-250 -145 0
-251 -146 0
-252 -147 0
-268 -145 0
-269 -146 0
-270 -147 0
-301 -145 0
-302 -146 0
-303 -147 0
-349 -145 0
-350 -146 0
-351 -147 0
-394 -145 0
-395 -146 0
-396 -147 0
-163 -148 0
-164 -149 0
-165 -150 0
-193 -148 0
-194 -149 0
-195 -150 0
-328 -148 0
-329 -149 0
-330 -150 0
-340 -148 0
-341 -149 0
-342 -150 0
-250 -151 0
-251 -152 0
-252 -153 0
-256 -151 0
-257 -152 0
-258 -153 0
-427 -151 0
-428 -152 0
-429 -153 0
-439 -151 0
-440 -152 0
-441 -153 0
-205 -154 0
-206 -155 0
-207 -156 0
-184 -157 0
-185 -158 0
-186 -159 0
-271 -157 0
-272 -158 0
-273 -159 0
-313 -157 0
-314 -158 0
-315 -159 0
-361 -157 0
-362 -158 0
-363 -159 0
-415 -157 0
-416 -158 0
-417 -159 0
-169 -160 0
-170 -161 0
-171 -162 0
-253 -160 0
-254 -161 0
-255 -162 0
-256 -160 0
-257 -161 0
-258 -162 0
-382 -160 0
-383 -161 0
-384 -162 0
-409 -166 0
-410 -167 0
-411 -168 0
-262 -169 0
-263 -170 0
-264 -171 0
-274 -169 0
-275 -170 0
-276 -171 0
-427 -169 0
-428 -170 0
-429 -171 0
-190 -172 0
-191 -173 0
-192 -174 0
-238 -172 0
-239 -173 0
-240 -174 0
-268 -172 0
-269 -173 0
-270 -174 0
-358 -172 0
-359 -173 0
-360 -174 0
-415 -172 0
-416 -173 0
-417 -174 0
-313 -175 0
-314 -176 0
-315 -177 0
-403 -178 0
-404 -179 0
-405 -180 0
-448 -178 0
-449 -179 0
-450 -180 0
-286 -181 0
-287 -182 0
-288 -183 0
-379 -181 0
-380 -182 0
-381 -183 0
-439 -181 0
-440 -182 0
-441 -183 0
-211 -184 0
-212 -185 0
-213 -186 0
-220 -184 0
-221 -185 0
-222 -186 0
-403 -184 0
-404 -185 0
-405 -186 0
-289 -187 0
-290 -188 0
-291 -189 0
-337 -187 0
-338 -188 0
-339 -189 0
-448 -187 0
-449 -188 0
-450 -189 0
-238 -190 0
-239 -191 0
-240 -192 0
-280 -190 0
-281 -191 0
-282 -192 0
-295 -193 0
-296 -194 0
-297 -195 0
-436 -193 0
-437 -194 0
-438 -195 0
-205 -196 0
-206 -197 0
-207 -198 0
-319 -196 0
-320 -197 0
-321 -198 0
-223 -199 0
-224 -200 0
-225 -201 0
-355 -199 0
-356 -200 0
-357 -201 0
-277 -202 0
-278 -203 0
-279 -204 0
-211 -205 0
-212 -206 0
-213 -207 0
-268 -205 0
-269 -206 0
-270 -207 0
-364 -205 0
-365 -206 0
-366 -207 0
-412 -205 0
-413 -206 0
-414 -207 0
-298 -208 0
-299 -209 0
-300 -210 0
-421 -208 0
-422 -209 0
-423 -210 0
-316 -211 0
-317 -212 0
-318 -213 0
-421 -211 0
-422 -212 0
-423 -213 0
-268 -214 0
-269 -215 0
-270 -216 0
-304 -214 0
-305 -215 0
-306 -216 0
-394 -214 0
-395 -215 0
-396 -216 0
-229 -217 0
-230 -218 0
-231 -219 0
-238 -217 0
-239 -218 0
-240 -219 0
-238 -220 0
-239 -221 0
-240 -222 0
-271 -220 0
-272 -221 0
-273 -222 0
-319 -220 0
-320 -221 0
-321 -222 0
-238 -223 0
-239 -224 0
-240 -225 0
-268 -223 0
-269 -224 0
-270 -225 0
-322 -223 0
-323 -224 0
-324 -225 0
-442 -223 0
-443 -224 0
-444 -225 0
-259 -226 0
-260 -227 0
-261 -228 0
-262 -226 0
-263 -227 0
-264 -228 0
-373 -226 0
-374 -227 0
-375 -228 0
-433 -229 0
-434 -230 0
-435 -231 0
-250 -232 0
-251 -233 0
-252 -234 0
-262 -232 0
-263 -233 0
-264 -234 0
-298 -232 0
-299 -233 0
-300 -234 0
-280 -235 0
-281 -236 0
-282 -237 0
-343 -235 0
-344 -236 0
-345 -237 0
-352 -235 0
-353 -236 0
-354 -237 0
-442 -235 0
-443 -236 0
-444 -237 0
-355 -238 0
-356 -239 0
-357 -240 0
-409 -241 0
-410 -242 0
-411 -243 0
-328 -244 0
-329 -245 0
-330 -246 0
-448 -244 0
-449 -245 0
-450 -246 0
-250 -247 0
-251 -248 0
-252 -249 0
-331 -247 0
-332 -248 0
-333 -249 0
-343 -250 0
-344 -251 0
-345 -252 0
-367 -250 0
-368 -251 0
-369 -252 0
-268 -253 0
-269 -254 0
-270 -255 0
-340 -253 0
-341 -254 0
-342 -255 0
-415 -253 0
-416 -254 0
-417 -255 0
-421 -253 0
-422 -254 0
-423 -255 0
-286 -256 0
-287 -257 0
-288 -258 0
-334 -256 0
-335 -257 0
-336 -258 0
-349 -256 0
-350 -257 0
-351 -258 0
-292 -259 0
-293 -260 0
-294 -261 0
-397 -259 0
-398 -260 0
-399 -261 0
-412 -262 0
-413 -263 0
-414 -264 0
-445 -262 0
-446 -263 0
-447 -264 0
-343 -265 0
-344 -266 0
-345 -267 0
-346 -265 0
-347 -266 0
-348 -267 0
-400 -265 0
-401 -266 0
-402 -267 0
-406 -265 0
-407 -266 0
-408 -267 0
-412 -265 0
-413 -266 0
-414 -267 0
-436 -265 0
-437 -266 0
-438 -267 0
-373 -268 0
-374 -269 0
-375 -270 0
-310 -271 0
-311 -272 0
-312 -273 0
-328 -271 0
-329 -272 0
-330 -273 0
-403 -274 0
-404 -275 0
-405 -276 0
-298 -277 0
-299 -278 0
-300 -279 0
-301 -277 0
-302 -278 0
-303 -279 0
-343 -277 0
-344 -278 0
-345 -279 0
-421 -277 0
-422 -278 0
-423 -279 0
-319 -280 0
-320 -281 0
-321 -282 0
-376 -280 0
-377 -281 0
-378 -282 0
-334 -286 0
-335 -287 0
-336 -288 0
-373 -286 0
-374 -287 0
-375 -288 0
-343 -289 0
-344 -290 0
-345 -291 0
-433 -292 0
-434 -293 0
-435 -294 0
-430 -304 0
-431 -305 0
-432 -306 0
-313 -307 0
-314 -308 0
-315 -309 0
-355 -307 0
-356 -308 0
-357 -309 0
-358 -307 0
-359 -308 0
-360 -309 0
-343 -310 0
-344 -311 0
-345 -312 0
-397 -313 0
-398 -314 0
-399 -315 0
-340 -316 0
-341 -317 0
-342 -318 0
-415 -316 0
-416 -317 0
-417 -318 0
-388 -322 0
-389 -323 0
-390 -324 0
-448 -322 0
-449 -323 0
-450 -324 0
-358 -325 0
-359 -326 0
-360 -327 0
-385 -325 0
-386 -326 0
-387 -327 0
-445 -325 0
-446 -326 0
-447 -327 0
-370 -328 0
-371 -329 0
-372 -330 0
-361 -331 0
-362 -332 0
-363 -333 0
-367 -331 0
-368 -332 0
-369 -333 0
-370 -334 0
-371 -335 0
-372 -336 0
-442 -334 0
-443 -335 0
-444 -336 0
-355 -337 0
-356 -338 0
-357 -339 0
-373 -337 0
-374 -338 0
-375 -339 0
-418 -340 0
-419 -341 0
-420 -342 0
-448 -340 0
-449 -341 0
-450 -342 0
-397 -349 0
-398 -350 0
-399 -351 0
-400 -349 0
-401 -350 0
-402 -351 0
-403 -349 0
-404 -350 0
-405 -351 0
-397 -358 0
-398 -359 0
-399 -360 0
-412 -358 0
-413 -359 0
-414 -360 0
-364 -361 0
-365 -362 0
-366 -363 0
-418 -361 0
-419 -362 0
-420 -363 0
-448 -361 0
-449 -362 0
-450 -363 0
-382 -373 0
-383 -374 0
-384 -375 0
-403 -373 0
-404 -374 0
-405 -375 0
-394 -376 0
-395 -377 0
-396 -378 0
-412 -379 0
-413 -380 0
-414 -381 0
-388 -382 0
-389 -383 0
-390 -384 0
-409 -382 0
-410 -383 0
-411 -384 0
-439 -385 0
-440 -386 0
-441 -387 0
-415 -397 0
-416 -398 0
-417 -399 0
-415 -412 0
-416 -413 0
-417 -414 0
-442 -421 0
-443 -422 0
-444 -423 0
